c clasp version 2.1.1
c Reading from p24.cnf
c Solving...
s SATISFIABLE

c Models        : 1+    
c Time          : 0.843s (Solving: 0.06s 1st Model: 0.06s Unsat: 0.00s)
c CPU Time      : 0.840s
c Choices       : 3240
c Conflicts     : 73
c Restarts      : 0     

c Variables     : 224150 (Eliminated: 70223 Frozen:    0)
c Constraints   : 256984 (Binary: 64.6% Ternary: 34.1% Other:  1.3%)
c Lemmas        : 73     (Binary:  0.0% Ternary:  2.7% Other: 97.3%)
c   Conflict    : 73     (Average Length: 24.1) 
c   Loop        : 0      (Average Length: 0.0) 
c   Other       : 0      (Average Length: 0.0)
c   Deleted     : 0     
